c CNF file corresponding to a (partial) station packing problem.
p cnf 2304 171
1 2 3 4 5 6 7 8 9 10 11 12 13 14 0
-1 -2 0
-1 -3 0
-1 -4 0
-1 -5 0
-1 -6 0
-1 -7 0
-1 -8 0
-1 -9 0
-1 -10 0
-1 -11 0
-1 -12 0
-1 -13 0
-1 -14 0
-2 -3 0
-2 -4 0
-2 -5 0
-2 -6 0
-2 -7 0
-2 -8 0
-2 -9 0
-2 -10 0
-2 -11 0
-2 -12 0
-2 -13 0
-2 -14 0
-3 -4 0
-3 -5 0
-3 -6 0
-3 -7 0
-3 -8 0
-3 -9 0
-3 -10 0
-3 -11 0
-3 -12 0
-3 -13 0
-3 -14 0
-4 -5 0
-4 -6 0
-4 -7 0
-4 -8 0
-4 -9 0
-4 -10 0
-4 -11 0
-4 -12 0
-4 -13 0
-4 -14 0
-5 -6 0
-5 -7 0
-5 -8 0
-5 -9 0
-5 -10 0
-5 -11 0
-5 -12 0
-5 -13 0
-5 -14 0
-6 -7 0
-6 -8 0
-6 -9 0
-6 -10 0
-6 -11 0
-6 -12 0
-6 -13 0
-6 -14 0
-7 -8 0
-7 -9 0
-7 -10 0
-7 -11 0
-7 -12 0
-7 -13 0
-7 -14 0
-8 -9 0
-8 -10 0
-8 -11 0
-8 -12 0
-8 -13 0
-8 -14 0
-9 -10 0
-9 -11 0
-9 -12 0
-9 -13 0
-9 -14 0
-10 -11 0
-10 -12 0
-10 -13 0
-10 -14 0
-11 -12 0
-11 -13 0
-11 -14 0
-12 -13 0
-12 -14 0
-13 -14 0
2292 2293 2294 2295 2296 2297 2298 2299 2300 2301 2302 2303 2304 0
-2292 -2293 0
-2292 -2294 0
-2292 -2295 0
-2292 -2296 0
-2292 -2297 0
-2292 -2298 0
-2292 -2299 0
-2292 -2300 0
-2292 -2301 0
-2292 -2302 0
-2292 -2303 0
-2292 -2304 0
-2293 -2294 0
-2293 -2295 0
-2293 -2296 0
-2293 -2297 0
-2293 -2298 0
-2293 -2299 0
-2293 -2300 0
-2293 -2301 0
-2293 -2302 0
-2293 -2303 0
-2293 -2304 0
-2294 -2295 0
-2294 -2296 0
-2294 -2297 0
-2294 -2298 0
-2294 -2299 0
-2294 -2300 0
-2294 -2301 0
-2294 -2302 0
-2294 -2303 0
-2294 -2304 0
-2295 -2296 0
-2295 -2297 0
-2295 -2298 0
-2295 -2299 0
-2295 -2300 0
-2295 -2301 0
-2295 -2302 0
-2295 -2303 0
-2295 -2304 0
-2296 -2297 0
-2296 -2298 0
-2296 -2299 0
-2296 -2300 0
-2296 -2301 0
-2296 -2302 0
-2296 -2303 0
-2296 -2304 0
-2297 -2298 0
-2297 -2299 0
-2297 -2300 0
-2297 -2301 0
-2297 -2302 0
-2297 -2303 0
-2297 -2304 0
-2298 -2299 0
-2298 -2300 0
-2298 -2301 0
-2298 -2302 0
-2298 -2303 0
-2298 -2304 0
-2299 -2300 0
-2299 -2301 0
-2299 -2302 0
-2299 -2303 0
-2299 -2304 0
-2300 -2301 0
-2300 -2302 0
-2300 -2303 0
-2300 -2304 0
-2301 -2302 0
-2301 -2303 0
-2301 -2304 0
-2302 -2303 0
-2302 -2304 0
-2303 -2304 0
